#N HF/6-31G OPT

H2CO Geometry Optimization

0 1
C
O 1 B1
H 1 B2 2 A1
H 1 B3 2 A2 3 D1

A1 120.00000
A2 120.00000
D1 180.00000
B1 1.2750000
B2 1.0900000
B3 1.0900000


